# 43853
param k := 6;
param n := 60;
param s := 1;
set E :=  (0,23) (0,59) (1,44) (1,52) (1,53) (2,28) (3,52) (4,32) (5,18) (5,35) (5,36) (6,13) (6,48) (7,16) (8,39) (8,53) (9,22) (9,55) (10,12) (10,15) (10,56) (11,51) (12,50) (12,58) (13,30) (14,47) (16,39) (16,49) (16,51) (17,27) (17,54) (18,21) (18,50) (19,34) (19,48) (19,51) (20,38) (21,33) (22,24) (23,31) (23,38) (24,32) (24,48) (24,58) (25,43) (25,51) (26,50) (28,54) (29,50) (35,40) (36,54) (37,57) (37,58) (38,50) (39,45) (41,52) (42,48) (43,44) (46,57) (47,50);